(set-logic HORN)
; KVARS

(declare-fun k_98 (Int Int Int Int Int Int Int Int Int Int Int Int Int Int) Bool)

(declare-fun k_95 (Int Int Int Int Int Int Int Int Int Int Int) Bool)

(declare-fun k_93 (Int Int Int Int Int Int Int Int Int Int Int Int) Bool)

(declare-fun k_86 (Int Int Int Int Int Int Int Int) Bool)

(declare-fun k_83 (Int Int Int Int Int Int Int Int Int) Bool)

(declare-fun k_80 (Int Int Int Int Int Int Int Int Int) Bool)

(declare-fun k_78 (Int Int Int Int Int Int Int Int Int Int) Bool)

(declare-fun k_76 (Int Int Int Int Int Int Int Int Int) Bool)

(declare-fun k_73 (Int Int Int Int Int Int Int Int Int Int) Bool)

(declare-fun k_71 (Int Int Int Int Int Int Int Int Int Int) Bool)

(declare-fun k_68 (Int Int Int Int Int Int Int) Bool)

(declare-fun k_65 (Int Int Int Int Int Int Int Int) Bool)

(declare-fun k_62 (Int Int Int Int Int Int Int Int) Bool)

(declare-fun k_60 (Int Int Int Int Int Int Int Int Int) Bool)

(declare-fun k_58 (Int Int Int Int Int Int Int Int) Bool)

(declare-fun k_55 (Int Int Int Int Int Int Int Int Int) Bool)

(declare-fun k_53 (Int Int Int Int Int Int Int Int Int) Bool)

(declare-fun k_50 (Int Int Int Int Int Int) Bool)

(declare-fun k_47 (Int Int Int Int Int) Bool)

(declare-fun k_44 (Int Int Int Int Int Int) Bool)

(declare-fun k_417 (Int Int Int Int Int Int Int Int Int Int Int Int) Bool)

(declare-fun k_414 (Int Int Int Int Int Int Int Int Int Int Int Int Int) Bool)

(declare-fun k_412 (Int Int Int Int Int Int Int Int Int Int Int Int Int) Bool)

(declare-fun k_410 (Int Int Int Int Int Int Int Int Int Int Int) Bool)

(declare-fun k_41 (Int Int Int Int Int) Bool)

(declare-fun k_407 (Int Int Int Int Int Int Int Int Int Int Int Int) Bool)

(declare-fun k_405 (Int Int Int Int Int Int Int Int Int Int Int Int) Bool)

(declare-fun k_400 (Int Int Int Int Int Int Int Int Int Int Int Int Int Int Int Int Int Int Int Int Int Int Int Int Int Int) Bool)

(declare-fun k_397 (Int Int Int Int Int Int Int Int Int Int Int Int Int Int Int Int Int Int Int Int Int Int Int Int Int Int Int) Bool)

(declare-fun k_395 (Int Int Int Int Int Int Int Int Int Int Int Int Int Int Int Int Int Int Int Int Int Int Int Int Int Int Int) Bool)

(declare-fun k_393 (Int Int Int Int Int Int Int Int Int Int Int Int Int Int Int Int Int Int Int Int Int Int Int Int Int) Bool)

(declare-fun k_390 (Int Int Int Int Int Int Int Int Int Int Int Int Int Int Int Int Int Int Int Int Int Int Int Int Int Int) Bool)

(declare-fun k_388 (Int Int Int Int Int Int Int Int Int Int Int Int Int Int Int Int Int Int Int Int Int Int Int Int Int Int) Bool)

(declare-fun k_385 (Int Int Int Int Int Int Int Int Int Int Int Int Int Int Int Int Int Int Int Int Int Int Int Int) Bool)

(declare-fun k_380 (Int Int Int Int Int Int Int Int Int Int Int Int Int Int Int Int Int Int Int Int Int Int Int Int) Bool)

(declare-fun k_377 (Int Int Int Int Int Int Int Int Int Int Int Int Int Int Int Int Int Int Int Int Int Int Int Int Int) Bool)

(declare-fun k_375 (Int Int Int Int Int Int Int Int Int Int Int Int Int Int Int Int Int Int Int Int Int Int Int Int Int) Bool)

(declare-fun k_373 (Int Int Int Int Int Int Int Int Int Int Int Int Int Int Int Int Int Int Int Int Int Int Int) Bool)

(declare-fun k_370 (Int Int Int Int Int Int Int Int Int Int Int Int Int Int Int Int Int Int Int Int Int Int Int Int) Bool)

(declare-fun k_368 (Int Int Int Int Int Int Int Int Int Int Int Int Int Int Int Int Int Int Int Int Int Int Int Int) Bool)

(declare-fun k_363 (Int Int Int Int Int Int Int Int Int Int Int Int Int Int Int Int Int Int Int Int Int Int Int Int Int Int Int Int Int Int Int) Bool)

(declare-fun k_360 (Int Int Int Int Int Int Int Int Int Int Int Int Int Int Int Int Int Int Int Int Int Int Int Int Int Int Int Int Int Int Int Int) Bool)

(declare-fun k_358 (Int Int Int Int Int Int Int Int Int Int Int Int Int Int Int Int Int Int Int Int Int Int Int Int Int Int Int Int Int Int Int Int) Bool)

(declare-fun k_356 (Int Int Int Int Int Int Int Int Int Int Int Int Int Int Int Int Int Int Int Int Int Int Int Int Int Int Int Int Int Int) Bool)

(declare-fun k_353 (Int Int Int Int Int Int Int Int Int Int Int Int Int Int Int Int Int Int Int Int Int Int Int Int Int Int Int Int Int Int Int) Bool)

(declare-fun k_351 (Int Int Int Int Int Int Int Int Int Int Int Int Int Int Int Int Int Int Int Int Int Int Int Int Int Int Int Int Int Int Int) Bool)

(declare-fun k_344 (Int Int Int Int Int Int Int Int Int Int Int Int Int Int Int Int Int Int Int Int Int Int Int Int Int Int Int) Bool)

(declare-fun k_342 (Int Int Int Int Int Int Int Int Int Int Int Int Int Int Int Int Int Int Int Int Int Int Int Int Int Int Int Int) Bool)

(declare-fun k_333 (Int Int Int Int Int Int Int Int Int Int Int Int Int Int Int Int Int Int Int Int Int Int Int Int Int) Bool)

(declare-fun k_330 (Int Int Int Int Int Int Int Int Int Int Int Int Int Int Int Int Int Int Int Int Int Int Int Int Int Int) Bool)

(declare-fun k_328 (Int Int Int Int Int Int Int Int Int Int Int Int Int Int Int Int Int Int Int Int Int Int Int Int Int Int) Bool)

(declare-fun k_326 (Int Int Int Int Int Int Int Int Int Int Int Int Int Int Int Int Int Int Int Int Int Int Int Int) Bool)

(declare-fun k_323 (Int Int Int Int Int Int Int Int Int Int Int Int Int Int Int Int Int Int Int Int Int Int Int Int Int) Bool)

(declare-fun k_321 (Int Int Int Int Int Int Int Int Int Int Int Int Int Int Int Int Int Int Int Int Int Int Int Int Int) Bool)

(declare-fun k_317 (Int Int Int Int Int Int Int Int Int Int Int Int Int Int Int Int Int Int Int Int Int Int Int) Bool)

(declare-fun k_314 (Int Int Int Int Int Int Int Int Int Int Int Int Int Int Int Int Int Int Int Int Int Int Int Int) Bool)

(declare-fun k_311 (Int Int Int Int Int Int Int Int Int Int Int Int Int Int Int Int Int Int Int Int Int Int Int Int) Bool)

(declare-fun k_309 (Int Int Int Int Int Int Int Int Int Int Int Int Int Int Int Int Int Int Int Int Int Int Int Int Int) Bool)

(declare-fun k_307 (Int Int Int Int Int Int Int Int Int Int Int Int Int Int Int Int Int Int Int Int Int Int Int Int) Bool)

(declare-fun k_304 (Int Int Int Int Int Int Int Int Int Int Int Int Int Int Int Int Int Int Int Int Int Int Int Int Int) Bool)

(declare-fun k_302 (Int Int Int Int Int Int Int Int Int Int Int Int Int Int Int Int Int Int Int Int Int Int Int Int Int) Bool)

(declare-fun k_299 (Int Int Int Int Int Int Int Int Int Int Int Int Int Int Int Int Int Int Int Int Int Int) Bool)

(declare-fun k_296 (Int Int Int Int Int Int Int Int Int Int Int Int Int Int Int Int Int Int Int Int Int Int Int) Bool)

(declare-fun k_293 (Int Int Int Int Int Int Int Int Int Int Int Int Int Int Int Int Int Int Int Int Int Int Int) Bool)

(declare-fun k_291 (Int Int Int Int Int Int Int Int Int Int Int Int Int Int Int Int Int Int Int Int Int Int Int Int) Bool)

(declare-fun k_289 (Int Int Int Int Int Int Int Int Int Int Int Int Int Int Int Int Int Int Int Int Int Int Int) Bool)

(declare-fun k_286 (Int Int Int Int Int Int Int Int Int Int Int Int Int Int Int Int Int Int Int Int Int Int Int Int) Bool)

(declare-fun k_284 (Int Int Int Int Int Int Int Int Int Int Int Int Int Int Int Int Int Int Int Int Int Int Int Int) Bool)

(declare-fun k_281 (Int Int Int Int Int Int Int Int Int Int Int Int Int Int Int Int Int Int Int Int Int Int Int) Bool)

(declare-fun k_278 (Int Int Int Int Int Int Int Int Int Int Int Int Int Int Int Int Int Int Int Int Int Int Int Int) Bool)

(declare-fun k_275 (Int Int Int Int Int Int Int Int Int Int Int Int Int Int Int Int Int Int Int Int Int Int Int Int) Bool)

(declare-fun k_273 (Int Int Int Int Int Int Int Int Int Int Int Int Int Int Int Int Int Int Int Int Int Int Int Int Int) Bool)

(declare-fun k_271 (Int Int Int Int Int Int Int Int Int Int Int Int Int Int Int Int Int Int Int Int Int Int Int Int) Bool)

(declare-fun k_268 (Int Int Int Int Int Int Int Int Int Int Int Int Int Int Int Int Int Int Int Int Int Int Int Int Int) Bool)

(declare-fun k_266 (Int Int Int Int Int Int Int Int Int Int Int Int Int Int Int Int Int Int Int Int Int Int Int Int Int) Bool)

(declare-fun k_264 (Int Int Int Int Int Int Int Int Int Int Int Int Int Int Int Int Int Int Int Int Int Int) Bool)

(declare-fun k_261 (Int Int Int Int Int Int Int Int Int Int Int Int Int Int Int Int Int Int Int Int Int Int Int) Bool)

(declare-fun k_258 (Int Int Int Int Int Int Int Int Int Int Int Int Int Int Int Int Int Int Int Int Int Int Int) Bool)

(declare-fun k_256 (Int Int Int Int Int Int Int Int Int Int Int Int Int Int Int Int Int Int Int Int Int Int Int Int) Bool)

(declare-fun k_254 (Int Int Int Int Int Int Int Int Int Int Int Int Int Int Int Int Int Int Int Int Int Int Int) Bool)

(declare-fun k_251 (Int Int Int Int Int Int Int Int Int Int Int Int Int Int Int Int Int Int Int Int Int Int Int Int) Bool)

(declare-fun k_249 (Int Int Int Int Int Int Int Int Int Int Int Int Int Int Int Int Int Int Int Int Int Int Int Int) Bool)

(declare-fun k_242 (Int Int Int Int Int Int Int Int Int Int Int Int Int Int Int Int Int Int Int Int) Bool)

(declare-fun k_240 (Int Int Int Int Int Int Int Int Int Int Int Int Int Int Int Int Int Int Int) Bool)

(declare-fun k_235 (Int Int Int Int Int Int Int Int Int Int Int Int Int Int Int Int Int Int Int Int Int Int Int Int Int Int Int) Bool)

(declare-fun k_233 (Int Int Int Int Int Int Int Int Int Int Int Int Int Int Int Int Int Int Int Int Int Int Int Int Int Int) Bool)

(declare-fun k_226 (Int Int Int Int Int Int Int Int Int Int Int Int Int Int Int Int Int Int Int Int Int Int Int) Bool)

(declare-fun k_224 (Int Int Int Int Int Int Int Int Int Int Int Int Int Int Int Int Int Int Int Int Int Int Int Int) Bool)

(declare-fun k_215 (Int Int Int Int Int Int Int Int Int Int Int Int Int Int Int Int Int Int Int Int Int) Bool)

(declare-fun k_213 (Int Int Int Int Int Int Int Int Int Int Int Int Int Int Int Int Int Int Int Int) Bool)

(declare-fun k_209 (Int Int Int Int Int Int Int Int Int Int Int Int Int Int Int Int Int Int Int) Bool)

(declare-fun k_206 (Int Int Int Int Int Int Int Int Int Int Int Int Int Int Int Int Int Int Int Int) Bool)

(declare-fun k_204 (Int Int Int Int Int Int Int Int Int Int Int Int Int Int Int Int Int Int Int Int) Bool)

(declare-fun k_201 (Int Int Int Int Int Int Int Int Int Int Int Int Int Int Int Int Int Int) Bool)

(declare-fun k_198 (Int Int Int Int Int Int Int Int Int Int Int Int Int Int Int Int Int Int Int) Bool)

(declare-fun k_195 (Int Int Int Int Int Int Int Int Int Int Int Int Int Int Int Int Int Int Int) Bool)

(declare-fun k_193 (Int Int Int Int Int Int Int Int Int Int Int Int Int Int Int Int Int Int Int Int) Bool)

(declare-fun k_191 (Int Int Int Int Int Int Int Int Int Int Int Int Int Int Int Int Int Int Int) Bool)

(declare-fun k_188 (Int Int Int Int Int Int Int Int Int Int Int Int Int Int Int Int Int Int Int Int) Bool)

(declare-fun k_186 (Int Int Int Int Int Int Int Int Int Int Int Int Int Int Int Int Int Int Int Int) Bool)

(declare-fun k_183 (Int Int Int Int Int Int Int Int Int Int Int Int Int Int Int Int Int Int Int) Bool)

(declare-fun k_180 (Int Int Int Int Int Int Int Int Int Int Int Int Int Int Int Int Int Int Int Int) Bool)

(declare-fun k_178 (Int Int Int Int Int Int Int Int Int Int Int Int Int Int Int Int Int Int Int Int) Bool)

(declare-fun k_176 (Int Int Int Int Int Int Int Int Int Int Int Int Int Int Int Int Int Int) Bool)

(declare-fun k_173 (Int Int Int Int Int Int Int Int Int Int Int Int Int Int Int Int Int Int Int) Bool)

(declare-fun k_170 (Int Int Int Int Int Int Int Int Int Int Int Int Int Int Int Int Int Int Int) Bool)

(declare-fun k_168 (Int Int Int Int Int Int Int Int Int Int Int Int Int Int Int Int Int Int Int Int) Bool)

(declare-fun k_166 (Int Int Int Int Int Int Int Int Int Int Int Int Int Int Int Int Int Int Int) Bool)

(declare-fun k_163 (Int Int Int Int Int Int Int Int Int Int Int Int Int Int Int Int Int Int Int Int) Bool)

(declare-fun k_161 (Int Int Int Int Int Int Int Int Int Int Int Int Int Int Int Int Int Int Int Int) Bool)

(declare-fun k_156 (Int Int Int Int Int Int Int Int Int Int Int Int Int Int Int Int Int) Bool)

(declare-fun k_153 (Int Int Int Int Int Int Int Int Int Int Int Int Int Int Int Int Int Int) Bool)

(declare-fun k_150 (Int Int Int Int Int Int Int Int Int Int Int Int Int Int Int Int Int Int) Bool)

(declare-fun k_148 (Int Int Int Int Int Int Int Int Int Int Int Int Int Int Int Int Int Int Int) Bool)

(declare-fun k_146 (Int Int Int Int Int Int Int Int Int Int Int Int Int Int Int Int Int Int) Bool)

(declare-fun k_143 (Int Int Int Int Int Int Int Int Int Int Int Int Int Int Int Int Int Int Int) Bool)

(declare-fun k_141 (Int Int Int Int Int Int Int Int Int Int Int Int Int Int Int Int Int Int Int) Bool)

(declare-fun k_133 (Int Int Int Int Int Int Int Int Int Int Int Int Int Int) Bool)

(declare-fun k_130 (Int Int Int Int Int Int Int Int Int Int Int Int Int Int Int) Bool)

(declare-fun k_127 (Int Int Int Int Int Int Int Int Int Int Int Int Int Int Int) Bool)

(declare-fun k_125 (Int Int Int Int Int Int Int Int Int Int Int Int Int Int Int Int) Bool)

(declare-fun k_123 (Int Int Int Int Int Int Int Int Int Int Int Int Int Int Int) Bool)

(declare-fun k_120 (Int Int Int Int Int Int Int Int Int Int Int Int Int Int Int Int) Bool)

(declare-fun k_118 (Int Int Int Int Int Int Int Int Int Int Int Int Int Int Int Int) Bool)

(declare-fun k_113 (Int Int Int Int Int Int Int Int Int Int Int Int) Bool)

(declare-fun k_110 (Int Int Int Int Int Int Int Int Int Int Int Int Int) Bool)

(declare-fun k_107 (Int Int Int Int Int Int Int Int Int Int Int Int Int) Bool)

(declare-fun k_105 (Int Int Int Int Int Int Int Int Int Int Int Int Int Int) Bool)

(declare-fun k_103 (Int Int Int Int Int Int Int Int Int Int Int Int Int) Bool)

(declare-fun k_100 (Int Int Int Int Int Int Int Int Int Int Int Int Int Int) Bool)

; CONSTRAINTS

; cid = 179
(assert (forall ((EQ_6U Int) 
(GT_6W Int) (LT_6S Int) (VV_F179 Int) (cmp (Array Int Int)) (ds_dsk Int) 
(ds_dsl Int) (ds_dsm Int) (ds_dsn Int) (ds_dso Int) (ds_dsu Int) 
(fix__58__35_64 (Array Int (Array Int Int))) (fix__91__93__35_6m Int) 
(len (Array Int Int)) (lq_anf__dsB Int) (lq_anf__dsC Int) (lq_anf__dsx Int) 
(lq_anf__dsy Int) (lq_anf__dsz Int) (realWorld__0f Int) 
(xss_arM Int)) 
 (=> (and (not (= 0 1)) (and (k_47 EQ_6U GT_6W LT_6S ds_dsk realWorld__0f) (and (k_50 EQ_6U GT_6W LT_6S ds_dsl ds_dsk realWorld__0f) (and (k_68 EQ_6U GT_6W LT_6S ds_dsm ds_dsk ds_dsl realWorld__0f) (and (k_58 EQ_6U GT_6W LT_6S ds_dso lq_anf__dsz ds_dsk ds_dsl realWorld__0f) (and (k_95 EQ_6U GT_6W LT_6S ds_dsu ds_dsk ds_dsl ds_dsm ds_dsn lq_anf__dsx lq_anf__dsy realWorld__0f) (and (k_58 EQ_6U GT_6W LT_6S lq_anf__dsB lq_anf__dsz ds_dsk ds_dsl realWorld__0f) (and (k_47 EQ_6U GT_6W LT_6S lq_anf__dsx realWorld__0f) (and (k_68 EQ_6U GT_6W LT_6S lq_anf__dsz ds_dsk ds_dsl realWorld__0f) (and (= (select cmp EQ_6U) EQ_6U) (and (= (select cmp GT_6W) GT_6W) (and (= (select cmp LT_6S) LT_6S) (and (>= (select len ds_dsm) 0) (and (>= (select len ds_dso) 0) (and (>= (select len lq_anf__dsB) 0) (and (= lq_anf__dsB ds_dso) (and (>= (select len lq_anf__dsB) 0) (and (= lq_anf__dsB fix__91__93__35_6m) (and (= (select len lq_anf__dsB) 0) (and (>= (select len lq_anf__dsB) 0) (and (>= (select len lq_anf__dsC) 0) (and (= lq_anf__dsx ds_dsk) (and (= lq_anf__dsx ds_dsn) (and (= lq_anf__dsx ds_dsn) (and (= lq_anf__dsy ds_dsn) (and (not (= lq_anf__dsy 0)) (and (>= (select len lq_anf__dsz) 0) (and (= lq_anf__dsz ds_dsm) (and (>= (select len lq_anf__dsz) 0) (and (= lq_anf__dsz (select (select fix__58__35_64 ds_dso) xss_arM)) (and (= (select len lq_anf__dsz) (+ 1 (select len xss_arM))) (and (>= (select len lq_anf__dsz) 0) (and (>= (select len xss_arM) 0) (and (>= (select len VV_F179) 0) (and (= VV_F179 lq_anf__dsC) true))))))))))))))))))))))))))))))))))) false))
)


; cid = 26
(assert (forall ((EQ_6U Int) (GT_6W Int) (LT_6S Int) 
(VV_F26 Int) (cmp (Array Int Int)) (ds_dsk Int) (ds_dsl Int) (ds_dsm Int) 
(ds_dsn Int) (len (Array Int Int)) (lq_anf__dsx Int) (lq_anf__dsy Int) 
(realWorld__0f Int)) 
 (=> (and (k_47 EQ_6U GT_6W LT_6S ds_dsk realWorld__0f) (and (k_50 EQ_6U GT_6W LT_6S ds_dsl ds_dsk realWorld__0f) (and (k_68 EQ_6U GT_6W LT_6S ds_dsm ds_dsk ds_dsl realWorld__0f) (and (k_47 EQ_6U GT_6W LT_6S lq_anf__dsx realWorld__0f) (and (= (select cmp EQ_6U) EQ_6U) (and (= (select cmp GT_6W) GT_6W) (and (= (select cmp LT_6S) LT_6S) (and (>= (select len ds_dsm) 0) (and (= lq_anf__dsx ds_dsk) (and (= lq_anf__dsx ds_dsn) (and (= lq_anf__dsx ds_dsn) (and (= lq_anf__dsy ds_dsn) (and (not (= lq_anf__dsy 0)) (and (= VV_F26 realWorld__0f) true)))))))))))))) (k_95 EQ_6U GT_6W LT_6S VV_F26 ds_dsk ds_dsl ds_dsm ds_dsn lq_anf__dsx lq_anf__dsy realWorld__0f)))
)


; cid = 4
(assert (forall ((EQ_6U Int) (GT_6W Int) (LT_6S Int) (VV_426 Int) 
(VV_F4 Int) (cmp (Array Int Int)) (len (Array Int Int)) (m Int) (n Int) 
(realWorld__0f Int)) 
 (=> (and (= (select cmp EQ_6U) EQ_6U) (and (= (select cmp GT_6W) GT_6W) (and (= (select cmp LT_6S) LT_6S) (and (= (select len VV_426) m) (and (>= (select len VV_426) 0) (and (> m 0) (and (= (select len VV_F4) n) true))))))) (k_58 EQ_6U GT_6W LT_6S VV_F4 VV_426 n m realWorld__0f)))
)


; cid = 3
(assert (forall ((EQ_6U Int) (GT_6W Int) (LT_6S Int) (VV_F3 Int) 
(cmp (Array Int Int)) (len (Array Int Int)) (m Int) (n Int) 
(realWorld__0f Int)) 
 (=> (and (= (select cmp EQ_6U) EQ_6U) (and (= (select cmp GT_6W) GT_6W) (and (= (select cmp LT_6S) LT_6S) (and (> m 0) (and (= (select len VV_F3) m) true))))) (k_68 EQ_6U GT_6W LT_6S VV_F3 n m realWorld__0f)))
)


; cid = 2
(assert (forall ((EQ_6U Int) (GT_6W Int) (LT_6S Int) (VV_F2 Int) 
(cmp (Array Int Int)) (n Int) 
(realWorld__0f Int)) 
 (=> (and (= (select cmp EQ_6U) EQ_6U) (and (= (select cmp GT_6W) GT_6W) (and (= (select cmp LT_6S) LT_6S) (and (> VV_F2 0) true)))) (k_50 EQ_6U GT_6W LT_6S VV_F2 n realWorld__0f)))
)


; cid = 1
(assert (forall ((EQ_6U Int) (GT_6W Int) (LT_6S Int) (VV_F1 Int) 
(cmp (Array Int Int)) 
(realWorld__0f Int)) 
 (=> (and (= (select cmp EQ_6U) EQ_6U) (and (= (select cmp GT_6W) GT_6W) (and (= (select cmp LT_6S) LT_6S) true))) (k_47 EQ_6U GT_6W LT_6S VV_F1 realWorld__0f)))
)
